&control
    calculation='relax'
    restart_mode='from_scratch',
    prefix='MoS2_1L_pbe_nsoc',
    pseudo_dir = '../../../Pseudo/PBE',
    outdir='./tmp'
    verbosity = 'high' ,
    tstress = .true. ,
    tprnfor = .true. ,
    wf_collect = .true.,
    forc_conv_thr = 1.d-4
    etot_conv_thr = 1.d-5
/
&system
    ibrav=4, celldm(1)=5.9892,  celldm(3) = 8 
    nat=3, ntyp= 2,
!    noncolin = .true.,
!    lspinorb = .true.,
    ecutwfc = 130
!   nbnd = 100
!   force_symmorphic=.true.
   input_dft='vdw-df2-b86r',
/
 &electrons
    startingwfc='atomic+random'
    conv_thr =  1.d-7
    mixing_beta = 0.7
 /
&ions
    ion_dynamics='bfgs',
    upscale=10
/
&cell
    cell_dynamics = 'bfgs'
    cell_dofree = '2Dxy'
/
ATOMIC_SPECIES
  S   32.065  S.upf
 Mo   183.84  Mo.upf
ATOMIC_POSITIONS (crystal)
Mo            0.3333330000        0.6666667000        0.0000000000
S             0.6666667000        0.3333330000        0.0617914260
S             0.6666667000        0.3333330000       -0.0617914260
K_POINTS {automatic}
12 12 1 0 0 0
