&PROJWFC
prefix="C2L_AA_PBE_vdW",
outdir="./tmp/",
filpdos= 'C2L_AA_PBE_vdW_DOS.dat'
/
