&PROJWFC
prefix="hBN_1l_PBE_vdW",
outdir="./tmp/",
filpdos= 'hBN_1l_PBE_vdW_DOS.dat'
/
