&bands
prefix = "graphene"
outdir = "./tmp"
filband = "graphene_LDA.dat"
lsym=.true.
/
