&PROJWFC
prefix="hBN_1L_LDA",
outdir="./tmp/",
filpdos= 'hBN_1L_LDA_pdos.dat'
/
