&CONTROL
    calculation       = 'nscf'
!    restart_mode      = 'restart'
    prefix            = 'C2L_AB_PBE_vdW'
    tstress           = .true.
    tprnfor           = .true.
    pseudo_dir        = '../../../../Pseudo/PBE'
    outdir            = './tmp'
    verbosity         = 'high'
    disk_io = 'minimal'
    wf_collect        = .true.
!    nstep = 200
/
&SYSTEM   
           ibrav = 4,
           celldm(1) = 4.66447,
           celldm(3) = 8,
           nat = 4,
           ntyp = 1,
           ecutwfc = 60,
           nbnd = 16
           occupations = 'smearing' ,
           degauss = 0.005 ,
           smearing = 'm-v' ,
           input_dft = 'vdw-df2-b86r'
           nosym = .true.
/
&ELECTRONS
    diago_thr_init=5.0e-6,
    diago_full_acc=.true.
    mixing_mode = 'plain'
    conv_thr =  1.0d-7,
    mixing_beta = 0.7
!    diago_david_ndim = 2
/
&IONS
/
ATOMIC_SPECIES
    C   12.01100  C.upf 
ATOMIC_POSITIONS crystal 
C 0.000000 0.000000 0.00000  0 0 0
C 0.000000 0.000000 0.167517
C 0.666667 0.333333 0.000000  0 0 0
C 0.333333 0.666667 0.167517
K_POINTS {automatic}
12 12  1 0 0 0
