&bands
prefix = "MoS2_bulk_pbe_vdW_wsoc"
outdir = "./tmp"
filband = "Bande_MoS2_bulk_pbe_vdW_wsoc.dat"
lsym=.true.
/
