&projwfc
 prefix = "BULK-MoS2",
 outdir = "./tmp/",
 filpdos = "BULK-MoS2-SOC-DOS.dat"
/
