&CONTROL
    calculation       = 'vc-relax'
    restart_mode      = 'from_scratch'
    prefix            = 'graphene'
    tstress           = .true.
    tprnfor           = .true.
    pseudo_dir        = '../../../../Pseudo/PBE/'
    outdir            = './'
    verbosity         = 'high'
    disk_io = 'minimal'
    wf_collect        = .true.
/
&SYSTEM
                       ibrav = 4,
                   celldm(1) = 4.635,
                   celldm(3) = 6,
                         nat = 4,
                        ntyp = 2,
                     ecutwfc = 80 ,
                        nbnd = 8,
                 occupations = 'smearing' ,
                     degauss = 0.01 ,
                    smearing = 'm-v' ,
/
&ELECTRONS
                 mixing_beta = 0.7 ,
/
&IONS
/
&CELL
/
ATOMIC_SPECIES
    N   14.00670  N.upf
    B   10.80100  B.upf 
ATOMIC_POSITIONS crystal 
    N      0.000000000    0.000000000    0.000000000    
    B      0.333333333    0.666666667    0.000000000    
    N      0.000000000    0.000000000    0.250000000
    B      0.666666667    0.333333333    0.250000000
K_POINTS automatic
12 12 1	0 0 0
