&CONTROL
    calculation       = 'vc-relax'
!    restart_mode      = 'restart'
    prefix            = 'BNBULK_AA1_PBE_vdW'
    tstress           = .true.
    tprnfor           = .true.
    pseudo_dir        = '../../../Pseudo/PBE'
    outdir            = './tmp'
    verbosity         = 'high'
    disk_io = 'minimal'
    wf_collect        = .true.
!    nstep = 200
/
&SYSTEM   
           ibrav = 4,
           celldm(1) = 4.74
           celldm(3) = 2.7257,
           nat = 4,
           ntyp = 2,
           ecutwfc = 140,
           occupations = 'smearing' ,
           degauss = 0.005 ,
           smearing = 'm-v' ,
           vdW_corr = 'dft-d3' 
/
&ELECTRONS
                 mixing_beta = 0.7 ,
/
&IONS
/
&CELL
/
ATOMIC_SPECIES
    B   10.  B.upf 
    N   14.  N.upf
ATOMIC_POSITIONS crystal 
B 0.000000 0.000000 0.00000  0 0 0
N 0.666667 0.333333 0.000000 0 0 0
N 0.000000 0.000000 0.50000  
B 0.666667 0.333333 0.50000 
K_POINTS automatic
12 12 3	0 0 0
