&projwfc
 prefix = "1L-MoS2",
 outdir = "./tmp/",
 filpdos = "1L-MoS2-DOS.dat"
/
