&control
    calculation  = 'scf',
    prefix       = 'BULK-MoS2',
    pseudo_dir   = '/exports/commonscratch/sgrillo/MAURIZIA/MoS2/pseudos',
    outdir       = './tmp',
    verbosity    = 'high',
    disk_io      = 'minimal',
    wf_collect   = .true.
/
&system
    ibrav       = 4,
    ecutwfc     = 70,
    celldm(1)   = 5.952637220,
    celldm(3)   = 3.926697185,
    nat         = 6,
    ntyp        = 2,
    lspinorb    = .true.,
    noncolin    = .true.,
    starting_magnetization  = 0.0,
!    input_dft = 'vdw-df2-b86r'
/
&electrons
    mixing_beta = 0.7
/
ATOMIC_SPECIES
S  32.065  S.upf
Mo 95.94   Mo.upf
ATOMIC_POSITIONS {angstrom}
 Mo         1.5845402254        0.9148347253        1.3260256629
 S          0.0000000000        1.8296694506       -0.2448882907
 S          0.0000000000        1.8296694506        2.8969200300
 Mo         0.0000000000        1.8296694506        7.5103830171
 S          1.5845402254        0.9148347253        5.9394819229
 S          1.5845402254        0.9148347253        9.0812947507
K_POINTS {automatic}
 9 9 6   0 0 0
