&CONTROL
    calculation       = 'scf'
    restart_mode      = 'from_scratch'
    prefix            = 'graphene'
    tstress           = .true.
    tprnfor           = .true.
    pseudo_dir        = '../../../Pseudo/PBE'
    outdir            = './tmp'
    verbosity         = 'high'
    disk_io = 'minimal'
    wf_collect        = .true.
/
&SYSTEM
                       ibrav = 4,
                   celldm(1) = 4.6203,
                   celldm(3) = 6,
                         nat = 4,
                        ntyp = 1,
                     ecutwfc = 60 ,
                        nbnd = 8,
                 occupations = 'smearing' ,
                     degauss = 0.01 ,
                    smearing = 'm-v' ,
/
&ELECTRONS
                 mixing_beta = 0.7 ,
/
ATOMIC_SPECIES
    C   12.01100  C.upf 
ATOMIC_POSITIONS crystal 
    C      0.000000000    0.000000000    0.000000000    
    C      0.333333333    0.666666667    0.000000000    
    C      0.000000000    0.000000000    0.2000
    C      0.333333333    0.666666667    0.2000
K_POINTS automatic
12 12 1	0 0 0
