&bands
prefix = "graphene"
outdir = "./tmp"
filband = "graphene_PBE.dat"
lsym=.true.
/
