&PROJWFC
prefix="hBN",
outdir="./tmp/",
filpdos= 'hBN_pdos.dat'
/
