&INPUTPP
 outdir='./tmp'
 prefix='hBN_1l_PBE_vdW'
 plot_num=5
 sample_bias= -.27233
/
&PLOT
 nfile=1
 filepp(1)='hBN_1l_PBE_vdW'
 weight(1)=1.0
 iflag=3
 output_format=5
! output_format=6
  fileout="hBN_1l_PBE_vdW_stm.xsf"
! fileout="hBN_1l_PBE_vdW_stm.cube"
/
