&CONTROL
    calculation       = 'scf'
    restart_mode      = 'from_scratch'
    prefix            = 'C2L_AB_Efield_PBE'
!    tstress           = .true.
!    tprnfor           = .true.
    pseudo_dir        = ''
    outdir            = './tmp'
    verbosity         = 'high'
    disk_io = 'minimal'
    wf_collect        = .true.
    tefield = .true.
!    nstep = 200
/
&SYSTEM
    ibrav = 4,
    celldm(1) = 4.66447,
    celldm(3) = 8,
!    nosym = .true.
    edir = 3
    eamp = 0.0002
    emaxpos = 0.45
    eopreg = 0.01
    nat = 4,
    ntyp = 1,
    ecutwfc = 60,
    occupations = 'smearing' ,
    degauss = 0.005 ,
    smearing = 'm-v' ,
    input_dft = 'vdw-df2-b86r'
/
&ELECTRONS
    mixing_beta = 0.7 ,
/
ATOMIC_SPECIES
    C   12.01100  C.upf
ATOMIC_POSITIONS crystal
C 0.000000 0.000000 0.00000  0 0 0
C 0.000000 0.000000 0.167517
C 0.666667 0.333333 0.000000  0 0 0
C 0.333333 0.666667 0.167517
K_POINTS automatic
12 12 1   0 0 0
