&control
    calculation  = 'bands',
    prefix       = '1L-MoS2',
    pseudo_dir   = '/exports/commonscratch/sgrillo/MAURIZIA/MoS2/pseudos',
    outdir       = './tmp',
    verbosity    = 'high',
    disk_io      = 'minimal',
    wf_collect   = .true.
/
&system
    ibrav       = 4,
    ecutwfc     = 70,
    celldm(1)   = 5.952637220,
    celldm(3)   = 5.777778614,
    nat         = 3,
    ntyp        = 2,
    input_dft = 'vdw-df2-b86r'
    nbnd        = 20
/
&electrons
    mixing_beta = 0.7
/
ATOMIC_SPECIES
S  32.065  S.upf 
Mo 95.94   Mo.upf 
ATOMIC_POSITIONS {angstrom}
 Mo        1.5827568869        0.9138051143        1.5748378074
 S         0.0000000000        1.8276102286        0.0028275528
 S         0.0000000000        1.8276102286        3.1468095418
K_POINTS {crystal_b}
  4
  0.00000 0.000000 0.00000  21  ! Gamma
 -0.33333 0.666667 0.00000  11  ! K
  0.00000 0.500000 0.00000  18  ! M
  0.00000 0.000000 0.00000   1  ! Gamma
