&control
    calculation  = 'nscf',
    prefix       = '2L-MoS2',
    pseudo_dir   = '/exports/commonscratch/sgrillo/MAURIZIA/MoS2/pseudos',
    outdir       = './tmp',
    verbosity    = 'high',
    disk_io      = 'minimal',
    wf_collect   = .true.
/
&system
    ibrav       = 4,
    ecutwfc     = 60,
    celldm(1)   = 5.95263722,
    celldm(3)   = 8.2,
    nat         = 6,
    ntyp        = 2,
    bnd         = 32, 
    input_dft = 'vdw-df2-b86r'
/
&electrons
    mixing_beta = 0.7
/
ATOMIC_SPECIES
S  32.065  S.upf
Mo 95.94   Mo.upf
ATOMIC_POSITIONS {angstrom}
 Mo         1.5741976251        0.9088634222        2.1408679599
 S          0.0000000000        1.8177268444        0.5650074589
 S          0.0000000000        1.8177268444        3.7184123088
 Mo         0.0000000000        1.8177268444        8.3543702863
 S          1.5741976251        0.9088634222        6.7767908053
 S          1.5741976251        0.9088634222        9.9302372138
K_POINTS {automatic}
 9 9 1   0 0 0
