&projwfc
 prefix = "2L-MoS2",
 outdir = "./tmp/",
 filpdos = "2L-MoS2-DOS.dat"
/
