&CONTROL
    calculation       = 'bands'
!    restart_mode      = 'restart'
    prefix            = 'BN2L_AA_PBE_vdW'
    pseudo_dir        = '../../../../Pseudo/PBE'
    outdir            = './tmp'
    verbosity         = 'high'
    disk_io = 'minimal'
    wf_collect        = .true.
!    nstep = 200
/
&SYSTEM   
           ibrav = 4,
           celldm(1) = 4.74763000,
           celldm(3) = 8,
           nat = 4,
           ntyp = 2,
           ecutwfc = 60,
           nbnd = 20
           occupations = 'smearing' ,
           degauss = 0.005 ,
           smearing = 'm-v' ,
           input_dft = 'vdw-df2-b86r'
/
&ELECTRONS
                 mixing_beta = 0.7 ,
/
&IONS
/
&CELL
cell_dofree = 'z'
/
ATOMIC_SPECIES
   B    10.0 B.upf 
   N   14.01100  N.upf 
ATOMIC_POSITIONS crystal 
B             0.0000000000        0.0000000000        0.0000000000    0   0   0
N             0.6666670000        0.3333330000        0.0000000000    0   0   0
B             0.0000000000        0.0000000000        0.1772700000
N             0.6666670000        0.3333330000        0.1772700000
K_POINTS {crystal_b}
4
0.00000 0.00000 0.00000 21 !Gamma
-0.33333 0.666667 0.00000 11 !K
0.00000 0.50000 0.00000 18  !M
0.00000 0.00000 0.00000 1 !Gamma
