&bands
prefix = "C2L_AA_PBE_vdW"
outdir = "./tmp"
filband = "Bande_C2L_AA_PBE_vdW.dat"
lsym=.true.
/
