&bands
prefix = "MoS2_1L_pbe_vdW_nsoc"
outdir = "./tmp"
filband = "Bande_MoS2_1L_pbe_vdW_nsoc.dat"
lsym=.true.
/
