&inputpp
prefix  = 'graphene'
outdir = './tmp'
filplot = 'vacuum.pot'
plot_num= 11
/
