&bands
prefix = "CBN2L_AB_PBE_vdW"
outdir = "./tmp"
filband = "Bande_CBN2L_AB_PBE_vdW.dat"
lsym=.true.
/
