&PROJWFC
prefix="graphene",
outdir="./tmp/",
filpdos= 'graphene_pdos.dat'
/
