&PROJWFC
prefix="graphene_PBE_vdW",
outdir="./tmp50/",
filpdos= 'graphene_PBE_vdW_DOS50.dat'
/
