&PROJWFC
prefix="graphene_PBE_vdW",
outdir="./tmp/",
filpdos= 'graphene_PBE_vdW_DOS.dat'
/
