&bands
prefix = "hBN"
outdir = "./tmp"
filband = "hBN.dat"
lsym=.true.
/
