&CONTROL
    calculation       = 'scf'
    restart_mode      = 'from_scratch'
    prefix            = 'graphene'
    tstress           = .true.
    tprnfor           = .true.
    pseudo_dir        = '../../../Pseudo/PBE'
    outdir            = './tmp'
    verbosity         = 'high'
    disk_io = 'minimal'
    wf_collect        = .true.
/
&SYSTEM   
                    ibrav = 0,
                    celldm(1) = 4.6203,
!                   celldm(3) = 6,
                    nat = 4,
                    ntyp = 1,
                    ecutwfc = 60 ,
                    nbnd = 8,
                    occupations = 'smearing' ,
                    degauss = 0.01 ,
                    smearing = 'm-v' ,
                    input_dft = 'vdw-df2-b86r'
/
&ELECTRONS
                 mixing_beta = 0.7 ,
/
ATOMIC_SPECIES
    C   12.01100  C.upf 
CELL_PARAMETERS (alat=  4.62030000)
   1.007442783  -0.000000016   0.000000000
  -0.503721406   0.872471035   0.000000000
  -0.000000000  -0.000000000   3.122109373
ATOMIC_POSITIONS (crystal)
C             0.0000000000       -0.0000000000       -0.1251820038
C             0.3333333330        0.6666666670       -0.1251820038
C             0.0000000000        0.0000000000        0.3751820038
C             0.3333333330        0.6666666670        0.3751820038
K_POINTS automatic
12 12 1	0 0 0
