&bands
prefix = "graphene_PBE"
outdir = "./tmp"
filband = "graphene_PBE.dat"
lsym=.true.
/
