&bands
prefix = "BN2L_AA1_PBE_vdW"
outdir = "./tmp"
filband = "Bande_BN2L_AA1_PBE_vdW.dat"
lsym=.true.
/
