&CONTROL
    calculation       = 'scf'
!    restart_mode      = 'restart'
    prefix            = 'BN2L_AA1_PBE_vdW'
    pseudo_dir        = '../../../../Pseudo/PBE'
    outdir            = './tmp'
    verbosity         = 'high'
    disk_io = 'minimal'
    wf_collect        = .true.
!    nstep = 200
/
&SYSTEM   
           ibrav = 4,
           celldm(1) = 4.7489,
           celldm(3) = 8,
           nat = 4,
           ntyp = 2,
           ecutwfc = 60,
           input_dft = 'vdw-df2-b86r'
/
&ELECTRONS
                 mixing_beta = 0.7 ,
/
&IONS
/
&CELL
cell_dofree = 'z'
/
ATOMIC_SPECIES
   B    10.0 B.upf 
   N   14.01100  N.upf 
ATOMIC_POSITIONS crystal 
B             0.0000000000        0.0000000000        0.0000000000
N             0.6666670000        0.3333330000        0.0000000000
N             0.0000000000        0.0000000000        0.1639940000
B             0.6666670000        0.3333330000        0.1639940000
K_POINTS automatic
12 12 1	0 0 0
